--------------------------------------------------
s SATISFIABLE
benchmarks_SAT/INST_64x64/100/inst64x64_100_0.cnf : 5337 ms.
--------------------------------------------------
s SATISFIABLE
benchmarks_SAT/INST_64x64/100/inst64x64_100_10.cnf : 4901 ms.
--------------------------------------------------
s SATISFIABLE
benchmarks_SAT/INST_64x64/100/inst64x64_100_11.cnf : 4743 ms.
--------------------------------------------------
s SATISFIABLE
benchmarks_SAT/INST_64x64/100/inst64x64_100_12.cnf : 4815 ms.
--------------------------------------------------
s SATISFIABLE
benchmarks_SAT/INST_64x64/100/inst64x64_100_13.cnf : 4821 ms.
--------------------------------------------------
s SATISFIABLE
benchmarks_SAT/INST_64x64/100/inst64x64_100_14.cnf : 5189 ms.
--------------------------------------------------
s SATISFIABLE
benchmarks_SAT/INST_64x64/100/inst64x64_100_15.cnf : 4940 ms.
--------------------------------------------------
s SATISFIABLE
benchmarks_SAT/INST_64x64/100/inst64x64_100_16.cnf : 5139 ms.
--------------------------------------------------
s SATISFIABLE
benchmarks_SAT/INST_64x64/100/inst64x64_100_17.cnf : 5008 ms.
--------------------------------------------------
s SATISFIABLE
benchmarks_SAT/INST_64x64/100/inst64x64_100_18.cnf : 4935 ms.
--------------------------------------------------
s SATISFIABLE
benchmarks_SAT/INST_64x64/100/inst64x64_100_19.cnf : 5147 ms.
--------------------------------------------------
s SATISFIABLE
benchmarks_SAT/INST_64x64/100/inst64x64_100_1.cnf : 5376 ms.
--------------------------------------------------
s SATISFIABLE
benchmarks_SAT/INST_64x64/100/inst64x64_100_20.cnf : 5224 ms.
--------------------------------------------------
s SATISFIABLE
benchmarks_SAT/INST_64x64/100/inst64x64_100_21.cnf : 5067 ms.
--------------------------------------------------
s SATISFIABLE
benchmarks_SAT/INST_64x64/100/inst64x64_100_22.cnf : 5233 ms.
--------------------------------------------------
s SATISFIABLE
benchmarks_SAT/INST_64x64/100/inst64x64_100_23.cnf : 4881 ms.
--------------------------------------------------
s SATISFIABLE
benchmarks_SAT/INST_64x64/100/inst64x64_100_24.cnf : 4957 ms.
--------------------------------------------------
s SATISFIABLE
benchmarks_SAT/INST_64x64/100/inst64x64_100_25.cnf : 5178 ms.
--------------------------------------------------
s SATISFIABLE
benchmarks_SAT/INST_64x64/100/inst64x64_100_26.cnf : 4837 ms.
--------------------------------------------------
s SATISFIABLE
benchmarks_SAT/INST_64x64/100/inst64x64_100_27.cnf : 5186 ms.
--------------------------------------------------
s SATISFIABLE
benchmarks_SAT/INST_64x64/100/inst64x64_100_28.cnf : 4877 ms.
--------------------------------------------------
s SATISFIABLE
benchmarks_SAT/INST_64x64/100/inst64x64_100_29.cnf : 5129 ms.
--------------------------------------------------
s SATISFIABLE
benchmarks_SAT/INST_64x64/100/inst64x64_100_2.cnf : 4834 ms.
--------------------------------------------------
s SATISFIABLE
benchmarks_SAT/INST_64x64/100/inst64x64_100_30.cnf : 5138 ms.
--------------------------------------------------
s SATISFIABLE
benchmarks_SAT/INST_64x64/100/inst64x64_100_31.cnf : 5498 ms.
--------------------------------------------------
s SATISFIABLE
benchmarks_SAT/INST_64x64/100/inst64x64_100_32.cnf : 4686 ms.
--------------------------------------------------
s SATISFIABLE
benchmarks_SAT/INST_64x64/100/inst64x64_100_33.cnf : 5002 ms.
--------------------------------------------------
s SATISFIABLE
benchmarks_SAT/INST_64x64/100/inst64x64_100_34.cnf : 4978 ms.
--------------------------------------------------
s SATISFIABLE
benchmarks_SAT/INST_64x64/100/inst64x64_100_35.cnf : 4892 ms.
--------------------------------------------------
s SATISFIABLE
benchmarks_SAT/INST_64x64/100/inst64x64_100_36.cnf : 4862 ms.
--------------------------------------------------
s SATISFIABLE
benchmarks_SAT/INST_64x64/100/inst64x64_100_37.cnf : 4754 ms.
--------------------------------------------------
s SATISFIABLE
benchmarks_SAT/INST_64x64/100/inst64x64_100_38.cnf : 4756 ms.
--------------------------------------------------
s SATISFIABLE
benchmarks_SAT/INST_64x64/100/inst64x64_100_39.cnf : 4866 ms.
--------------------------------------------------
s SATISFIABLE
benchmarks_SAT/INST_64x64/100/inst64x64_100_3.cnf : 5408 ms.
--------------------------------------------------
s SATISFIABLE
benchmarks_SAT/INST_64x64/100/inst64x64_100_40.cnf : 5258 ms.
--------------------------------------------------
s SATISFIABLE
benchmarks_SAT/INST_64x64/100/inst64x64_100_41.cnf : 4932 ms.
--------------------------------------------------
s SATISFIABLE
benchmarks_SAT/INST_64x64/100/inst64x64_100_42.cnf : 5288 ms.
--------------------------------------------------
s SATISFIABLE
benchmarks_SAT/INST_64x64/100/inst64x64_100_43.cnf : 5194 ms.
--------------------------------------------------
s SATISFIABLE
benchmarks_SAT/INST_64x64/100/inst64x64_100_44.cnf : 5094 ms.
--------------------------------------------------
s SATISFIABLE
benchmarks_SAT/INST_64x64/100/inst64x64_100_45.cnf : 5165 ms.
--------------------------------------------------
s SATISFIABLE
benchmarks_SAT/INST_64x64/100/inst64x64_100_46.cnf : 5163 ms.
--------------------------------------------------
s SATISFIABLE
benchmarks_SAT/INST_64x64/100/inst64x64_100_47.cnf : 5076 ms.
--------------------------------------------------
s SATISFIABLE
benchmarks_SAT/INST_64x64/100/inst64x64_100_48.cnf : 5156 ms.
--------------------------------------------------
s SATISFIABLE
benchmarks_SAT/INST_64x64/100/inst64x64_100_49.cnf : 5591 ms.
--------------------------------------------------
s SATISFIABLE
benchmarks_SAT/INST_64x64/100/inst64x64_100_4.cnf : 5144 ms.
--------------------------------------------------
s SATISFIABLE
benchmarks_SAT/INST_64x64/100/inst64x64_100_50.cnf : 5232 ms.
--------------------------------------------------
s SATISFIABLE
benchmarks_SAT/INST_64x64/100/inst64x64_100_51.cnf : 5091 ms.
--------------------------------------------------
s SATISFIABLE
benchmarks_SAT/INST_64x64/100/inst64x64_100_52.cnf : 5026 ms.
--------------------------------------------------
s SATISFIABLE
benchmarks_SAT/INST_64x64/100/inst64x64_100_53.cnf : 4992 ms.
--------------------------------------------------
s SATISFIABLE
benchmarks_SAT/INST_64x64/100/inst64x64_100_54.cnf : 5025 ms.
--------------------------------------------------
s SATISFIABLE
benchmarks_SAT/INST_64x64/100/inst64x64_100_55.cnf : 5128 ms.
--------------------------------------------------
s SATISFIABLE
benchmarks_SAT/INST_64x64/100/inst64x64_100_56.cnf : 5294 ms.
--------------------------------------------------
s SATISFIABLE
benchmarks_SAT/INST_64x64/100/inst64x64_100_57.cnf : 5172 ms.
--------------------------------------------------
s SATISFIABLE
benchmarks_SAT/INST_64x64/100/inst64x64_100_58.cnf : 5092 ms.
--------------------------------------------------
s SATISFIABLE
benchmarks_SAT/INST_64x64/100/inst64x64_100_59.cnf : 5101 ms.
--------------------------------------------------
s SATISFIABLE
benchmarks_SAT/INST_64x64/100/inst64x64_100_5.cnf : 4915 ms.
--------------------------------------------------
s SATISFIABLE
benchmarks_SAT/INST_64x64/100/inst64x64_100_60.cnf : 5204 ms.
--------------------------------------------------
s SATISFIABLE
benchmarks_SAT/INST_64x64/100/inst64x64_100_61.cnf : 5550 ms.
--------------------------------------------------
s SATISFIABLE
benchmarks_SAT/INST_64x64/100/inst64x64_100_62.cnf : 4822 ms.
--------------------------------------------------
s SATISFIABLE
benchmarks_SAT/INST_64x64/100/inst64x64_100_63.cnf : 4891 ms.
--------------------------------------------------
s SATISFIABLE
benchmarks_SAT/INST_64x64/100/inst64x64_100_64.cnf : 5082 ms.
--------------------------------------------------
s SATISFIABLE
benchmarks_SAT/INST_64x64/100/inst64x64_100_65.cnf : 5152 ms.
--------------------------------------------------
s SATISFIABLE
benchmarks_SAT/INST_64x64/100/inst64x64_100_66.cnf : 5055 ms.
--------------------------------------------------
s SATISFIABLE
benchmarks_SAT/INST_64x64/100/inst64x64_100_67.cnf : 5065 ms.
--------------------------------------------------
s SATISFIABLE
benchmarks_SAT/INST_64x64/100/inst64x64_100_68.cnf : 5343 ms.
--------------------------------------------------
s SATISFIABLE
benchmarks_SAT/INST_64x64/100/inst64x64_100_69.cnf : 5122 ms.
--------------------------------------------------
s SATISFIABLE
benchmarks_SAT/INST_64x64/100/inst64x64_100_6.cnf : 5189 ms.
--------------------------------------------------
s SATISFIABLE
benchmarks_SAT/INST_64x64/100/inst64x64_100_70.cnf : 4968 ms.
--------------------------------------------------
s SATISFIABLE
benchmarks_SAT/INST_64x64/100/inst64x64_100_71.cnf : 4947 ms.
--------------------------------------------------
s SATISFIABLE
benchmarks_SAT/INST_64x64/100/inst64x64_100_72.cnf : 4852 ms.
--------------------------------------------------
s SATISFIABLE
benchmarks_SAT/INST_64x64/100/inst64x64_100_73.cnf : 5087 ms.
--------------------------------------------------
s SATISFIABLE
benchmarks_SAT/INST_64x64/100/inst64x64_100_74.cnf : 5266 ms.
--------------------------------------------------
s SATISFIABLE
benchmarks_SAT/INST_64x64/100/inst64x64_100_75.cnf : 4999 ms.
--------------------------------------------------
s SATISFIABLE
benchmarks_SAT/INST_64x64/100/inst64x64_100_76.cnf : 5066 ms.
--------------------------------------------------
s SATISFIABLE
benchmarks_SAT/INST_64x64/100/inst64x64_100_77.cnf : 5099 ms.
--------------------------------------------------
s SATISFIABLE
benchmarks_SAT/INST_64x64/100/inst64x64_100_78.cnf : 5136 ms.
--------------------------------------------------
s SATISFIABLE
benchmarks_SAT/INST_64x64/100/inst64x64_100_79.cnf : 5408 ms.
--------------------------------------------------
s SATISFIABLE
benchmarks_SAT/INST_64x64/100/inst64x64_100_7.cnf : 4932 ms.
--------------------------------------------------
s SATISFIABLE
benchmarks_SAT/INST_64x64/100/inst64x64_100_80.cnf : 4860 ms.
--------------------------------------------------
s SATISFIABLE
benchmarks_SAT/INST_64x64/100/inst64x64_100_81.cnf : 5132 ms.
--------------------------------------------------
s SATISFIABLE
benchmarks_SAT/INST_64x64/100/inst64x64_100_82.cnf : 4827 ms.
--------------------------------------------------
s SATISFIABLE
benchmarks_SAT/INST_64x64/100/inst64x64_100_83.cnf : 4997 ms.
--------------------------------------------------
s SATISFIABLE
benchmarks_SAT/INST_64x64/100/inst64x64_100_84.cnf : 4813 ms.
--------------------------------------------------
s SATISFIABLE
benchmarks_SAT/INST_64x64/100/inst64x64_100_85.cnf : 5118 ms.
--------------------------------------------------
s SATISFIABLE
benchmarks_SAT/INST_64x64/100/inst64x64_100_86.cnf : 5046 ms.
--------------------------------------------------
s SATISFIABLE
benchmarks_SAT/INST_64x64/100/inst64x64_100_87.cnf : 5235 ms.
--------------------------------------------------
s SATISFIABLE
benchmarks_SAT/INST_64x64/100/inst64x64_100_88.cnf : 5218 ms.
--------------------------------------------------
s SATISFIABLE
benchmarks_SAT/INST_64x64/100/inst64x64_100_89.cnf : 5108 ms.
--------------------------------------------------
s SATISFIABLE
benchmarks_SAT/INST_64x64/100/inst64x64_100_8.cnf : 4993 ms.
--------------------------------------------------
s SATISFIABLE
benchmarks_SAT/INST_64x64/100/inst64x64_100_90.cnf : 5162 ms.
--------------------------------------------------
s SATISFIABLE
benchmarks_SAT/INST_64x64/100/inst64x64_100_91.cnf : 4979 ms.
--------------------------------------------------
s SATISFIABLE
benchmarks_SAT/INST_64x64/100/inst64x64_100_92.cnf : 5033 ms.
--------------------------------------------------
s SATISFIABLE
benchmarks_SAT/INST_64x64/100/inst64x64_100_93.cnf : 5186 ms.
--------------------------------------------------
s SATISFIABLE
benchmarks_SAT/INST_64x64/100/inst64x64_100_94.cnf : 5372 ms.
--------------------------------------------------
s SATISFIABLE
benchmarks_SAT/INST_64x64/100/inst64x64_100_95.cnf : 4777 ms.
--------------------------------------------------
s SATISFIABLE
benchmarks_SAT/INST_64x64/100/inst64x64_100_96.cnf : 4888 ms.
--------------------------------------------------
s SATISFIABLE
benchmarks_SAT/INST_64x64/100/inst64x64_100_97.cnf : 4730 ms.
--------------------------------------------------
s SATISFIABLE
benchmarks_SAT/INST_64x64/100/inst64x64_100_98.cnf : 5007 ms.
--------------------------------------------------
s SATISFIABLE
benchmarks_SAT/INST_64x64/100/inst64x64_100_99.cnf : 4835 ms.
--------------------------------------------------
s SATISFIABLE
benchmarks_SAT/INST_64x64/100/inst64x64_100_9.cnf : 5016 ms.
